\Problem name: sts63.lp
\
\ Optimal value: 45.
\
Minimize
 obj: x1 + x2 + x3 + x4 + x5 + x6 + x7 + x8 + x9 + x10 + x11 + x12 + x13 + x14
 + x15 + x16 + x17 + x18 + x19 + x20 + x21 + x22 + x23 + x24 + x25 + x26 + x27
 + x28 + x29 + x30 + x31 + x32 + x33 + x34 + x35 + x36 + x37 + x38 + x39 + x40
 + x41 + x42 + x43 + x44 + x45 + x46 + x47 + x48 + x49 + x50 + x51 + x52 + x53
 + x54 + x55 + x56 + x57 + x58 + x59 + x60 + x61 + x62 + x63
Subject To
 c1:   x1 + x22 + x43 >= 1
 c2:   x2 + x23 + x44 >= 1
 c3:   x3 + x24 + x45 >= 1
 c4:   x4 + x25 + x46 >= 1
 c5:   x5 + x26 + x47 >= 1
 c6:   x6 + x27 + x48 >= 1
 c7:   x7 + x28 + x49 >= 1
 c8:   x8 + x29 + x50 >= 1
 c9:   x9 + x30 + x51 >= 1
 c10:  x10 + x31 + x52 >= 1
 c11:  x11 + x32 + x53 >= 1
 c12:  x12 + x33 + x54 >= 1
 c13:  x13 + x34 + x55 >= 1
 c14:  x14 + x35 + x56 >= 1
 c15:  x15 + x36 + x57 >= 1
 c16:  x16 + x37 + x58 >= 1
 c17:  x17 + x38 + x59 >= 1
 c18:  x18 + x39 + x60 >= 1
 c19:  x19 + x40 + x61 >= 1
 c20:  x20 + x41 + x62 >= 1
 c21:  x21 + x42 + x63 >= 1
 c22:  x1 + x8 + x15 >= 1
 c23:  x22 + x29 + x36 >= 1
 c24:  x43 + x50 + x57 >= 1
 c25:  x1 + x29 + x57 >= 1
 c26:  x1 + x36 + x50 >= 1
 c27:  x8 + x22 + x57 >= 1
 c28:  x8 + x36 + x43 >= 1
 c29:  x15 + x22 + x50 >= 1
 c30:  x15 + x29 + x43 >= 1
 c31:  x2 + x9 + x16 >= 1
 c32:  x23 + x30 + x37 >= 1
 c33:  x44 + x51 + x58 >= 1
 c34:  x2 + x30 + x58 >= 1
 c35:  x2 + x37 + x51 >= 1
 c36:  x9 + x23 + x58 >= 1
 c37:  x9 + x37 + x44 >= 1
 c38:  x16 + x23 + x51 >= 1
 c39:  x16 + x30 + x44 >= 1
 c40:  x3 + x10 + x17 >= 1
 c41:  x24 + x31 + x38 >= 1
 c42:  x45 + x52 + x59 >= 1
 c43:  x3 + x31 + x59 >= 1
 c44:  x3 + x38 + x52 >= 1
 c45:  x10 + x24 + x59 >= 1
 c46:  x10 + x38 + x45 >= 1
 c47:  x17 + x24 + x52 >= 1
 c48:  x17 + x31 + x45 >= 1
 c49:  x4 + x11 + x18 >= 1
 c50:  x25 + x32 + x39 >= 1
 c51:  x46 + x53 + x60 >= 1
 c52:  x4 + x32 + x60 >= 1
 c53:  x4 + x39 + x53 >= 1
 c54:  x11 + x25 + x60 >= 1
 c55:  x11 + x39 + x46 >= 1
 c56:  x18 + x25 + x53 >= 1
 c57:  x18 + x32 + x46 >= 1
 c58:  x5 + x12 + x19 >= 1
 c59:  x26 + x33 + x40 >= 1
 c60:  x47 + x54 + x61 >= 1
 c61:  x5 + x33 + x61 >= 1
 c62:  x5 + x40 + x54 >= 1
 c63:  x12 + x26 + x61 >= 1
 c64:  x12 + x40 + x47 >= 1
 c65:  x19 + x26 + x54 >= 1
 c66:  x19 + x33 + x47 >= 1
 c67:  x6 + x13 + x20 >= 1
 c68:  x27 + x34 + x41 >= 1
 c69:  x48 + x55 + x62 >= 1
 c70:  x6 + x34 + x62 >= 1
 c71:  x6 + x41 + x55 >= 1
 c72:  x13 + x27 + x62 >= 1
 c73:  x13 + x41 + x48 >= 1
 c74:  x20 + x27 + x55 >= 1
 c75:  x20 + x34 + x48 >= 1
 c76:  x7 + x14 + x21 >= 1
 c77:  x28 + x35 + x42 >= 1
 c78:  x49 + x56 + x63 >= 1
 c79:  x7 + x35 + x63 >= 1
 c80:  x7 + x42 + x56 >= 1
 c81:  x14 + x28 + x63 >= 1
 c82:  x14 + x42 + x49 >= 1
 c83:  x21 + x28 + x56 >= 1
 c84:  x21 + x35 + x49 >= 1
 c85:  x1 + x2 + x4 >= 1
 c86:  x22 + x23 + x25 >= 1
 c87:  x43 + x44 + x46 >= 1
 c88:  x1 + x23 + x46 >= 1
 c89:  x1 + x25 + x44 >= 1
 c90:  x2 + x22 + x46 >= 1
 c91:  x2 + x25 + x43 >= 1
 c92:  x4 + x22 + x44 >= 1
 c93:  x4 + x23 + x43 >= 1
 c94:  x8 + x9 + x11 >= 1
 c95:  x29 + x30 + x32 >= 1
 c96:  x50 + x51 + x53 >= 1
 c97:  x8 + x30 + x53 >= 1
 c98:  x8 + x32 + x51 >= 1
 c99:  x9 + x29 + x53 >= 1
 c100: x9 + x32 + x50 >= 1
 c101: x11 + x29 + x51 >= 1
 c102: x11 + x30 + x50 >= 1
 c103: x15 + x16 + x18 >= 1
 c104: x36 + x37 + x39 >= 1
 c105: x57 + x58 + x60 >= 1
 c106: x15 + x37 + x60 >= 1
 c107: x15 + x39 + x58 >= 1
 c108: x16 + x36 + x60 >= 1
 c109: x16 + x39 + x57 >= 1
 c110: x18 + x36 + x58 >= 1
 c111: x18 + x37 + x57 >= 1
 c112: x1 + x9 + x18 >= 1
 c113: x22 + x30 + x39 >= 1
 c114: x43 + x51 + x60 >= 1
 c115: x1 + x30 + x60 >= 1
 c116: x1 + x39 + x51 >= 1
 c117: x9 + x22 + x60 >= 1
 c118: x9 + x39 + x43 >= 1
 c119: x18 + x22 + x51 >= 1
 c120: x18 + x30 + x43 >= 1
 c121: x1 + x11 + x16 >= 1
 c122: x22 + x32 + x37 >= 1
 c123: x43 + x53 + x58 >= 1
 c124: x1 + x32 + x58 >= 1
 c125: x1 + x37 + x53 >= 1
 c126: x11 + x22 + x58 >= 1
 c127: x11 + x37 + x43 >= 1
 c128: x16 + x22 + x53 >= 1
 c129: x16 + x32 + x43 >= 1
 c130: x2 + x8 + x18 >= 1
 c131: x23 + x29 + x39 >= 1
 c132: x44 + x50 + x60 >= 1
 c133: x2 + x29 + x60 >= 1
 c134: x2 + x39 + x50 >= 1
 c135: x8 + x23 + x60 >= 1
 c136: x8 + x39 + x44 >= 1
 c137: x18 + x23 + x50 >= 1
 c138: x18 + x29 + x44 >= 1
 c139: x2 + x11 + x15 >= 1
 c140: x23 + x32 + x36 >= 1
 c141: x44 + x53 + x57 >= 1
 c142: x2 + x32 + x57 >= 1
 c143: x2 + x36 + x53 >= 1
 c144: x11 + x23 + x57 >= 1
 c145: x11 + x36 + x44 >= 1
 c146: x15 + x23 + x53 >= 1
 c147: x15 + x32 + x44 >= 1
 c148: x4 + x8 + x16 >= 1
 c149: x25 + x29 + x37 >= 1
 c150: x46 + x50 + x58 >= 1
 c151: x4 + x29 + x58 >= 1
 c152: x4 + x37 + x50 >= 1
 c153: x8 + x25 + x58 >= 1
 c154: x8 + x37 + x46 >= 1
 c155: x16 + x25 + x50 >= 1
 c156: x16 + x29 + x46 >= 1
 c157: x4 + x9 + x15 >= 1
 c158: x25 + x30 + x36 >= 1
 c159: x46 + x51 + x57 >= 1
 c160: x4 + x30 + x57 >= 1
 c161: x4 + x36 + x51 >= 1
 c162: x9 + x25 + x57 >= 1
 c163: x9 + x36 + x46 >= 1
 c164: x15 + x25 + x51 >= 1
 c165: x15 + x30 + x46 >= 1
 c166: x2 + x3 + x5 >= 1
 c167: x23 + x24 + x26 >= 1
 c168: x44 + x45 + x47 >= 1
 c169: x2 + x24 + x47 >= 1
 c170: x2 + x26 + x45 >= 1
 c171: x3 + x23 + x47 >= 1
 c172: x3 + x26 + x44 >= 1
 c173: x5 + x23 + x45 >= 1
 c174: x5 + x24 + x44 >= 1
 c175: x9 + x10 + x12 >= 1
 c176: x30 + x31 + x33 >= 1
 c177: x51 + x52 + x54 >= 1
 c178: x9 + x31 + x54 >= 1
 c179: x9 + x33 + x52 >= 1
 c180: x10 + x30 + x54 >= 1
 c181: x10 + x33 + x51 >= 1
 c182: x12 + x30 + x52 >= 1
 c183: x12 + x31 + x51 >= 1
 c184: x16 + x17 + x19 >= 1
 c185: x37 + x38 + x40 >= 1
 c186: x58 + x59 + x61 >= 1
 c187: x16 + x38 + x61 >= 1
 c188: x16 + x40 + x59 >= 1
 c189: x17 + x37 + x61 >= 1
 c190: x17 + x40 + x58 >= 1
 c191: x19 + x37 + x59 >= 1
 c192: x19 + x38 + x58 >= 1
 c193: x2 + x10 + x19 >= 1
 c194: x23 + x31 + x40 >= 1
 c195: x44 + x52 + x61 >= 1
 c196: x2 + x31 + x61 >= 1
 c197: x2 + x40 + x52 >= 1
 c198: x10 + x23 + x61 >= 1
 c199: x10 + x40 + x44 >= 1
 c200: x19 + x23 + x52 >= 1
 c201: x19 + x31 + x44 >= 1
 c202: x2 + x12 + x17 >= 1
 c203: x23 + x33 + x38 >= 1
 c204: x44 + x54 + x59 >= 1
 c205: x2 + x33 + x59 >= 1
 c206: x2 + x38 + x54 >= 1
 c207: x12 + x23 + x59 >= 1
 c208: x12 + x38 + x44 >= 1
 c209: x17 + x23 + x54 >= 1
 c210: x17 + x33 + x44 >= 1
 c211: x3 + x9 + x19 >= 1
 c212: x24 + x30 + x40 >= 1
 c213: x45 + x51 + x61 >= 1
 c214: x3 + x30 + x61 >= 1
 c215: x3 + x40 + x51 >= 1
 c216: x9 + x24 + x61 >= 1
 c217: x9 + x40 + x45 >= 1
 c218: x19 + x24 + x51 >= 1
 c219: x19 + x30 + x45 >= 1
 c220: x3 + x12 + x16 >= 1
 c221: x24 + x33 + x37 >= 1
 c222: x45 + x54 + x58 >= 1
 c223: x3 + x33 + x58 >= 1
 c224: x3 + x37 + x54 >= 1
 c225: x12 + x24 + x58 >= 1
 c226: x12 + x37 + x45 >= 1
 c227: x16 + x24 + x54 >= 1
 c228: x16 + x33 + x45 >= 1
 c229: x5 + x9 + x17 >= 1
 c230: x26 + x30 + x38 >= 1
 c231: x47 + x51 + x59 >= 1
 c232: x5 + x30 + x59 >= 1
 c233: x5 + x38 + x51 >= 1
 c234: x9 + x26 + x59 >= 1
 c235: x9 + x38 + x47 >= 1
 c236: x17 + x26 + x51 >= 1
 c237: x17 + x30 + x47 >= 1
 c238: x5 + x10 + x16 >= 1
 c239: x26 + x31 + x37 >= 1
 c240: x47 + x52 + x58 >= 1
 c241: x5 + x31 + x58 >= 1
 c242: x5 + x37 + x52 >= 1
 c243: x10 + x26 + x58 >= 1
 c244: x10 + x37 + x47 >= 1
 c245: x16 + x26 + x52 >= 1
 c246: x16 + x31 + x47 >= 1
 c247: x3 + x4 + x6 >= 1
 c248: x24 + x25 + x27 >= 1
 c249: x45 + x46 + x48 >= 1
 c250: x3 + x25 + x48 >= 1
 c251: x3 + x27 + x46 >= 1
 c252: x4 + x24 + x48 >= 1
 c253: x4 + x27 + x45 >= 1
 c254: x6 + x24 + x46 >= 1
 c255: x6 + x25 + x45 >= 1
 c256: x10 + x11 + x13 >= 1
 c257: x31 + x32 + x34 >= 1
 c258: x52 + x53 + x55 >= 1
 c259: x10 + x32 + x55 >= 1
 c260: x10 + x34 + x53 >= 1
 c261: x11 + x31 + x55 >= 1
 c262: x11 + x34 + x52 >= 1
 c263: x13 + x31 + x53 >= 1
 c264: x13 + x32 + x52 >= 1
 c265: x17 + x18 + x20 >= 1
 c266: x38 + x39 + x41 >= 1
 c267: x59 + x60 + x62 >= 1
 c268: x17 + x39 + x62 >= 1
 c269: x17 + x41 + x60 >= 1
 c270: x18 + x38 + x62 >= 1
 c271: x18 + x41 + x59 >= 1
 c272: x20 + x38 + x60 >= 1
 c273: x20 + x39 + x59 >= 1
 c274: x3 + x11 + x20 >= 1
 c275: x24 + x32 + x41 >= 1
 c276: x45 + x53 + x62 >= 1
 c277: x3 + x32 + x62 >= 1
 c278: x3 + x41 + x53 >= 1
 c279: x11 + x24 + x62 >= 1
 c280: x11 + x41 + x45 >= 1
 c281: x20 + x24 + x53 >= 1
 c282: x20 + x32 + x45 >= 1
 c283: x3 + x13 + x18 >= 1
 c284: x24 + x34 + x39 >= 1
 c285: x45 + x55 + x60 >= 1
 c286: x3 + x34 + x60 >= 1
 c287: x3 + x39 + x55 >= 1
 c288: x13 + x24 + x60 >= 1
 c289: x13 + x39 + x45 >= 1
 c290: x18 + x24 + x55 >= 1
 c291: x18 + x34 + x45 >= 1
 c292: x4 + x10 + x20 >= 1
 c293: x25 + x31 + x41 >= 1
 c294: x46 + x52 + x62 >= 1
 c295: x4 + x31 + x62 >= 1
 c296: x4 + x41 + x52 >= 1
 c297: x10 + x25 + x62 >= 1
 c298: x10 + x41 + x46 >= 1
 c299: x20 + x25 + x52 >= 1
 c300: x20 + x31 + x46 >= 1
 c301: x4 + x13 + x17 >= 1
 c302: x25 + x34 + x38 >= 1
 c303: x46 + x55 + x59 >= 1
 c304: x4 + x34 + x59 >= 1
 c305: x4 + x38 + x55 >= 1
 c306: x13 + x25 + x59 >= 1
 c307: x13 + x38 + x46 >= 1
 c308: x17 + x25 + x55 >= 1
 c309: x17 + x34 + x46 >= 1
 c310: x6 + x10 + x18 >= 1
 c311: x27 + x31 + x39 >= 1
 c312: x48 + x52 + x60 >= 1
 c313: x6 + x31 + x60 >= 1
 c314: x6 + x39 + x52 >= 1
 c315: x10 + x27 + x60 >= 1
 c316: x10 + x39 + x48 >= 1
 c317: x18 + x27 + x52 >= 1
 c318: x18 + x31 + x48 >= 1
 c319: x6 + x11 + x17 >= 1
 c320: x27 + x32 + x38 >= 1
 c321: x48 + x53 + x59 >= 1
 c322: x6 + x32 + x59 >= 1
 c323: x6 + x38 + x53 >= 1
 c324: x11 + x27 + x59 >= 1
 c325: x11 + x38 + x48 >= 1
 c326: x17 + x27 + x53 >= 1
 c327: x17 + x32 + x48 >= 1
 c328: x4 + x5 + x7 >= 1
 c329: x25 + x26 + x28 >= 1
 c330: x46 + x47 + x49 >= 1
 c331: x4 + x26 + x49 >= 1
 c332: x4 + x28 + x47 >= 1
 c333: x5 + x25 + x49 >= 1
 c334: x5 + x28 + x46 >= 1
 c335: x7 + x25 + x47 >= 1
 c336: x7 + x26 + x46 >= 1
 c337: x11 + x12 + x14 >= 1
 c338: x32 + x33 + x35 >= 1
 c339: x53 + x54 + x56 >= 1
 c340: x11 + x33 + x56 >= 1
 c341: x11 + x35 + x54 >= 1
 c342: x12 + x32 + x56 >= 1
 c343: x12 + x35 + x53 >= 1
 c344: x14 + x32 + x54 >= 1
 c345: x14 + x33 + x53 >= 1
 c346: x18 + x19 + x21 >= 1
 c347: x39 + x40 + x42 >= 1
 c348: x60 + x61 + x63 >= 1
 c349: x18 + x40 + x63 >= 1
 c350: x18 + x42 + x61 >= 1
 c351: x19 + x39 + x63 >= 1
 c352: x19 + x42 + x60 >= 1
 c353: x21 + x39 + x61 >= 1
 c354: x21 + x40 + x60 >= 1
 c355: x4 + x12 + x21 >= 1
 c356: x25 + x33 + x42 >= 1
 c357: x46 + x54 + x63 >= 1
 c358: x4 + x33 + x63 >= 1
 c359: x4 + x42 + x54 >= 1
 c360: x12 + x25 + x63 >= 1
 c361: x12 + x42 + x46 >= 1
 c362: x21 + x25 + x54 >= 1
 c363: x21 + x33 + x46 >= 1
 c364: x4 + x14 + x19 >= 1
 c365: x25 + x35 + x40 >= 1
 c366: x46 + x56 + x61 >= 1
 c367: x4 + x35 + x61 >= 1
 c368: x4 + x40 + x56 >= 1
 c369: x14 + x25 + x61 >= 1
 c370: x14 + x40 + x46 >= 1
 c371: x19 + x25 + x56 >= 1
 c372: x19 + x35 + x46 >= 1
 c373: x5 + x11 + x21 >= 1
 c374: x26 + x32 + x42 >= 1
 c375: x47 + x53 + x63 >= 1
 c376: x5 + x32 + x63 >= 1
 c377: x5 + x42 + x53 >= 1
 c378: x11 + x26 + x63 >= 1
 c379: x11 + x42 + x47 >= 1
 c380: x21 + x26 + x53 >= 1
 c381: x21 + x32 + x47 >= 1
 c382: x5 + x14 + x18 >= 1
 c383: x26 + x35 + x39 >= 1
 c384: x47 + x56 + x60 >= 1
 c385: x5 + x35 + x60 >= 1
 c386: x5 + x39 + x56 >= 1
 c387: x14 + x26 + x60 >= 1
 c388: x14 + x39 + x47 >= 1
 c389: x18 + x26 + x56 >= 1
 c390: x18 + x35 + x47 >= 1
 c391: x7 + x11 + x19 >= 1
 c392: x28 + x32 + x40 >= 1
 c393: x49 + x53 + x61 >= 1
 c394: x7 + x32 + x61 >= 1
 c395: x7 + x40 + x53 >= 1
 c396: x11 + x28 + x61 >= 1
 c397: x11 + x40 + x49 >= 1
 c398: x19 + x28 + x53 >= 1
 c399: x19 + x32 + x49 >= 1
 c400: x7 + x12 + x18 >= 1
 c401: x28 + x33 + x39 >= 1
 c402: x49 + x54 + x60 >= 1
 c403: x7 + x33 + x60 >= 1
 c404: x7 + x39 + x54 >= 1
 c405: x12 + x28 + x60 >= 1
 c406: x12 + x39 + x49 >= 1
 c407: x18 + x28 + x54 >= 1
 c408: x18 + x33 + x49 >= 1
 c409: x1 + x5 + x6 >= 1
 c410: x22 + x26 + x27 >= 1
 c411: x43 + x47 + x48 >= 1
 c412: x1 + x26 + x48 >= 1
 c413: x1 + x27 + x47 >= 1
 c414: x5 + x22 + x48 >= 1
 c415: x5 + x27 + x43 >= 1
 c416: x6 + x22 + x47 >= 1
 c417: x6 + x26 + x43 >= 1
 c418: x8 + x12 + x13 >= 1
 c419: x29 + x33 + x34 >= 1
 c420: x50 + x54 + x55 >= 1
 c421: x8 + x33 + x55 >= 1
 c422: x8 + x34 + x54 >= 1
 c423: x12 + x29 + x55 >= 1
 c424: x12 + x34 + x50 >= 1
 c425: x13 + x29 + x54 >= 1
 c426: x13 + x33 + x50 >= 1
 c427: x15 + x19 + x20 >= 1
 c428: x36 + x40 + x41 >= 1
 c429: x57 + x61 + x62 >= 1
 c430: x15 + x40 + x62 >= 1
 c431: x15 + x41 + x61 >= 1
 c432: x19 + x36 + x62 >= 1
 c433: x19 + x41 + x57 >= 1
 c434: x20 + x36 + x61 >= 1
 c435: x20 + x40 + x57 >= 1
 c436: x1 + x12 + x20 >= 1
 c437: x22 + x33 + x41 >= 1
 c438: x43 + x54 + x62 >= 1
 c439: x1 + x33 + x62 >= 1
 c440: x1 + x41 + x54 >= 1
 c441: x12 + x22 + x62 >= 1
 c442: x12 + x41 + x43 >= 1
 c443: x20 + x22 + x54 >= 1
 c444: x20 + x33 + x43 >= 1
 c445: x1 + x13 + x19 >= 1
 c446: x22 + x34 + x40 >= 1
 c447: x43 + x55 + x61 >= 1
 c448: x1 + x34 + x61 >= 1
 c449: x1 + x40 + x55 >= 1
 c450: x13 + x22 + x61 >= 1
 c451: x13 + x40 + x43 >= 1
 c452: x19 + x22 + x55 >= 1
 c453: x19 + x34 + x43 >= 1
 c454: x5 + x8 + x20 >= 1
 c455: x26 + x29 + x41 >= 1
 c456: x47 + x50 + x62 >= 1
 c457: x5 + x29 + x62 >= 1
 c458: x5 + x41 + x50 >= 1
 c459: x8 + x26 + x62 >= 1
 c460: x8 + x41 + x47 >= 1
 c461: x20 + x26 + x50 >= 1
 c462: x20 + x29 + x47 >= 1
 c463: x5 + x13 + x15 >= 1
 c464: x26 + x34 + x36 >= 1
 c465: x47 + x55 + x57 >= 1
 c466: x5 + x34 + x57 >= 1
 c467: x5 + x36 + x55 >= 1
 c468: x13 + x26 + x57 >= 1
 c469: x13 + x36 + x47 >= 1
 c470: x15 + x26 + x55 >= 1
 c471: x15 + x34 + x47 >= 1
 c472: x6 + x8 + x19 >= 1
 c473: x27 + x29 + x40 >= 1
 c474: x48 + x50 + x61 >= 1
 c475: x6 + x29 + x61 >= 1
 c476: x6 + x40 + x50 >= 1
 c477: x8 + x27 + x61 >= 1
 c478: x8 + x40 + x48 >= 1
 c479: x19 + x27 + x50 >= 1
 c480: x19 + x29 + x48 >= 1
 c481: x6 + x12 + x15 >= 1
 c482: x27 + x33 + x36 >= 1
 c483: x48 + x54 + x57 >= 1
 c484: x6 + x33 + x57 >= 1
 c485: x6 + x36 + x54 >= 1
 c486: x12 + x27 + x57 >= 1
 c487: x12 + x36 + x48 >= 1
 c488: x15 + x27 + x54 >= 1
 c489: x15 + x33 + x48 >= 1
 c490: x2 + x6 + x7 >= 1
 c491: x23 + x27 + x28 >= 1
 c492: x44 + x48 + x49 >= 1
 c493: x2 + x27 + x49 >= 1
 c494: x2 + x28 + x48 >= 1
 c495: x6 + x23 + x49 >= 1
 c496: x6 + x28 + x44 >= 1
 c497: x7 + x23 + x48 >= 1
 c498: x7 + x27 + x44 >= 1
 c499: x9 + x13 + x14 >= 1
 c500: x30 + x34 + x35 >= 1
 c501: x51 + x55 + x56 >= 1
 c502: x9 + x34 + x56 >= 1
 c503: x9 + x35 + x55 >= 1
 c504: x13 + x30 + x56 >= 1
 c505: x13 + x35 + x51 >= 1
 c506: x14 + x30 + x55 >= 1
 c507: x14 + x34 + x51 >= 1
 c508: x16 + x20 + x21 >= 1
 c509: x37 + x41 + x42 >= 1
 c510: x58 + x62 + x63 >= 1
 c511: x16 + x41 + x63 >= 1
 c512: x16 + x42 + x62 >= 1
 c513: x20 + x37 + x63 >= 1
 c514: x20 + x42 + x58 >= 1
 c515: x21 + x37 + x62 >= 1
 c516: x21 + x41 + x58 >= 1
 c517: x2 + x13 + x21 >= 1
 c518: x23 + x34 + x42 >= 1
 c519: x44 + x55 + x63 >= 1
 c520: x2 + x34 + x63 >= 1
 c521: x2 + x42 + x55 >= 1
 c522: x13 + x23 + x63 >= 1
 c523: x13 + x42 + x44 >= 1
 c524: x21 + x23 + x55 >= 1
 c525: x21 + x34 + x44 >= 1
 c526: x2 + x14 + x20 >= 1
 c527: x23 + x35 + x41 >= 1
 c528: x44 + x56 + x62 >= 1
 c529: x2 + x35 + x62 >= 1
 c530: x2 + x41 + x56 >= 1
 c531: x14 + x23 + x62 >= 1
 c532: x14 + x41 + x44 >= 1
 c533: x20 + x23 + x56 >= 1
 c534: x20 + x35 + x44 >= 1
 c535: x6 + x9 + x21 >= 1
 c536: x27 + x30 + x42 >= 1
 c537: x48 + x51 + x63 >= 1
 c538: x6 + x30 + x63 >= 1
 c539: x6 + x42 + x51 >= 1
 c540: x9 + x27 + x63 >= 1
 c541: x9 + x42 + x48 >= 1
 c542: x21 + x27 + x51 >= 1
 c543: x21 + x30 + x48 >= 1
 c544: x6 + x14 + x16 >= 1
 c545: x27 + x35 + x37 >= 1
 c546: x48 + x56 + x58 >= 1
 c547: x6 + x35 + x58 >= 1
 c548: x6 + x37 + x56 >= 1
 c549: x14 + x27 + x58 >= 1
 c550: x14 + x37 + x48 >= 1
 c551: x16 + x27 + x56 >= 1
 c552: x16 + x35 + x48 >= 1
 c553: x7 + x9 + x20 >= 1
 c554: x28 + x30 + x41 >= 1
 c555: x49 + x51 + x62 >= 1
 c556: x7 + x30 + x62 >= 1
 c557: x7 + x41 + x51 >= 1
 c558: x9 + x28 + x62 >= 1
 c559: x9 + x41 + x49 >= 1
 c560: x20 + x28 + x51 >= 1
 c561: x20 + x30 + x49 >= 1
 c562: x7 + x13 + x16 >= 1
 c563: x28 + x34 + x37 >= 1
 c564: x49 + x55 + x58 >= 1
 c565: x7 + x34 + x58 >= 1
 c566: x7 + x37 + x55 >= 1
 c567: x13 + x28 + x58 >= 1
 c568: x13 + x37 + x49 >= 1
 c569: x16 + x28 + x55 >= 1
 c570: x16 + x34 + x49 >= 1
 c571: x1 + x3 + x7 >= 1
 c572: x22 + x24 + x28 >= 1
 c573: x43 + x45 + x49 >= 1
 c574: x1 + x24 + x49 >= 1
 c575: x1 + x28 + x45 >= 1
 c576: x3 + x22 + x49 >= 1
 c577: x3 + x28 + x43 >= 1
 c578: x7 + x22 + x45 >= 1
 c579: x7 + x24 + x43 >= 1
 c580: x8 + x10 + x14 >= 1
 c581: x29 + x31 + x35 >= 1
 c582: x50 + x52 + x56 >= 1
 c583: x8 + x31 + x56 >= 1
 c584: x8 + x35 + x52 >= 1
 c585: x10 + x29 + x56 >= 1
 c586: x10 + x35 + x50 >= 1
 c587: x14 + x29 + x52 >= 1
 c588: x14 + x31 + x50 >= 1
 c589: x15 + x17 + x21 >= 1
 c590: x36 + x38 + x42 >= 1
 c591: x57 + x59 + x63 >= 1
 c592: x15 + x38 + x63 >= 1
 c593: x15 + x42 + x59 >= 1
 c594: x17 + x36 + x63 >= 1
 c595: x17 + x42 + x57 >= 1
 c596: x21 + x36 + x59 >= 1
 c597: x21 + x38 + x57 >= 1
 c598: x1 + x10 + x21 >= 1
 c599: x22 + x31 + x42 >= 1
 c600: x43 + x52 + x63 >= 1
 c601: x1 + x31 + x63 >= 1
 c602: x1 + x42 + x52 >= 1
 c603: x10 + x22 + x63 >= 1
 c604: x10 + x42 + x43 >= 1
 c605: x21 + x22 + x52 >= 1
 c606: x21 + x31 + x43 >= 1
 c607: x1 + x14 + x17 >= 1
 c608: x22 + x35 + x38 >= 1
 c609: x43 + x56 + x59 >= 1
 c610: x1 + x35 + x59 >= 1
 c611: x1 + x38 + x56 >= 1
 c612: x14 + x22 + x59 >= 1
 c613: x14 + x38 + x43 >= 1
 c614: x17 + x22 + x56 >= 1
 c615: x17 + x35 + x43 >= 1
 c616: x3 + x8 + x21 >= 1
 c617: x24 + x29 + x42 >= 1
 c618: x45 + x50 + x63 >= 1
 c619: x3 + x29 + x63 >= 1
 c620: x3 + x42 + x50 >= 1
 c621: x8 + x24 + x63 >= 1
 c622: x8 + x42 + x45 >= 1
 c623: x21 + x24 + x50 >= 1
 c624: x21 + x29 + x45 >= 1
 c625: x3 + x14 + x15 >= 1
 c626: x24 + x35 + x36 >= 1
 c627: x45 + x56 + x57 >= 1
 c628: x3 + x35 + x57 >= 1
 c629: x3 + x36 + x56 >= 1
 c630: x14 + x24 + x57 >= 1
 c631: x14 + x36 + x45 >= 1
 c632: x15 + x24 + x56 >= 1
 c633: x15 + x35 + x45 >= 1
 c634: x7 + x8 + x17 >= 1
 c635: x28 + x29 + x38 >= 1
 c636: x49 + x50 + x59 >= 1
 c637: x7 + x29 + x59 >= 1
 c638: x7 + x38 + x50 >= 1
 c639: x8 + x28 + x59 >= 1
 c640: x8 + x38 + x49 >= 1
 c641: x17 + x28 + x50 >= 1
 c642: x17 + x29 + x49 >= 1
 c643: x7 + x10 + x15 >= 1
 c644: x28 + x31 + x36 >= 1
 c645: x49 + x52 + x57 >= 1
 c646: x7 + x31 + x57 >= 1
 c647: x7 + x36 + x52 >= 1
 c648: x10 + x28 + x57 >= 1
 c649: x10 + x36 + x49 >= 1
 c650: x15 + x28 + x52 >= 1
 c651: x15 + x31 + x49 >= 1
Bounds
 0 <= x1 <= 1
 0 <= x2 <= 1
 0 <= x3 <= 1
 0 <= x4 <= 1
 0 <= x5 <= 1
 0 <= x6 <= 1
 0 <= x7 <= 1
 0 <= x8 <= 1
 0 <= x9 <= 1
 0 <= x10 <= 1
 0 <= x11 <= 1
 0 <= x12 <= 1
 0 <= x13 <= 1
 0 <= x14 <= 1
 0 <= x15 <= 1
 0 <= x16 <= 1
 0 <= x17 <= 1
 0 <= x18 <= 1
 0 <= x19 <= 1
 0 <= x20 <= 1
 0 <= x21 <= 1
 0 <= x22 <= 1
 0 <= x23 <= 1
 0 <= x24 <= 1
 0 <= x25 <= 1
 0 <= x26 <= 1
 0 <= x27 <= 1
 0 <= x28 <= 1
 0 <= x29 <= 1
 0 <= x30 <= 1
 0 <= x31 <= 1
 0 <= x32 <= 1
 0 <= x33 <= 1
 0 <= x34 <= 1
 0 <= x35 <= 1
 0 <= x36 <= 1
 0 <= x37 <= 1
 0 <= x38 <= 1
 0 <= x39 <= 1
 0 <= x40 <= 1
 0 <= x41 <= 1
 0 <= x42 <= 1
 0 <= x43 <= 1
 0 <= x44 <= 1
 0 <= x45 <= 1
 0 <= x46 <= 1
 0 <= x47 <= 1
 0 <= x48 <= 1
 0 <= x49 <= 1
 0 <= x50 <= 1
 0 <= x51 <= 1
 0 <= x52 <= 1
 0 <= x53 <= 1
 0 <= x54 <= 1
 0 <= x55 <= 1
 0 <= x56 <= 1
 0 <= x57 <= 1
 0 <= x58 <= 1
 0 <= x59 <= 1
 0 <= x60 <= 1
 0 <= x61 <= 1
 0 <= x62 <= 1
 0 <= x63 <= 1
Binaries
 x1  x2  x3  x4  x5  x6  x7  x8  x9  x10  x11  x12  x13  x14  x15  x16  x17 
 x18  x19  x20  x21  x22  x23  x24  x25  x26  x27  x28  x29  x30  x31  x32 
 x33  x34  x35  x36  x37  x38  x39  x40  x41  x42  x43  x44  x45  x46  x47 
 x48  x49  x50  x51  x52  x53  x54  x55  x56  x57  x58  x59  x60  x61  x62 
 x63 
End
